c File: flat175_3_0.col
c
c SOURCE: Joseph Culberson (joe@cs.ualberta.ca)
c DESCRIPTION: Quasi-random coloring problem
c              generated with flatness = 0
c                             probability = 0.041
c                             known coloring = 3
c                             random seed = 1075
c              Creation Date:  Wed Feb 24 10:55:27 1999
c Maximum degree = 8 Minimum degree = 0
c COLOR VERIFICATION: Using the permuted order
c under simple greedy yields the specified
c coloring number
c Color = 3 specified partitions = 3
c p edge 175 417
c cnf created by edge2cnf
p cnf 525 1951
-1 -2 0
-1 -3 0
-2 -3 0
1 2 3 0
-4 -5 0
-4 -6 0
-5 -6 0
4 5 6 0
-7 -8 0
-7 -9 0
-8 -9 0
7 8 9 0
-10 -11 0
-10 -12 0
-11 -12 0
10 11 12 0
-13 -14 0
-13 -15 0
-14 -15 0
13 14 15 0
-16 -17 0
-16 -18 0
-17 -18 0
16 17 18 0
-19 -20 0
-19 -21 0
-20 -21 0
19 20 21 0
-22 -23 0
-22 -24 0
-23 -24 0
22 23 24 0
-25 -26 0
-25 -27 0
-26 -27 0
25 26 27 0
-28 -29 0
-28 -30 0
-29 -30 0
28 29 30 0
-31 -32 0
-31 -33 0
-32 -33 0
31 32 33 0
-34 -35 0
-34 -36 0
-35 -36 0
34 35 36 0
-37 -38 0
-37 -39 0
-38 -39 0
37 38 39 0
-40 -41 0
-40 -42 0
-41 -42 0
40 41 42 0
-43 -44 0
-43 -45 0
-44 -45 0
43 44 45 0
-46 -47 0
-46 -48 0
-47 -48 0
46 47 48 0
-49 -50 0
-49 -51 0
-50 -51 0
49 50 51 0
-52 -53 0
-52 -54 0
-53 -54 0
52 53 54 0
-55 -56 0
-55 -57 0
-56 -57 0
55 56 57 0
-58 -59 0
-58 -60 0
-59 -60 0
58 59 60 0
-61 -62 0
-61 -63 0
-62 -63 0
61 62 63 0
-64 -65 0
-64 -66 0
-65 -66 0
64 65 66 0
-67 -68 0
-67 -69 0
-68 -69 0
67 68 69 0
-70 -71 0
-70 -72 0
-71 -72 0
70 71 72 0
-73 -74 0
-73 -75 0
-74 -75 0
73 74 75 0
-76 -77 0
-76 -78 0
-77 -78 0
76 77 78 0
-79 -80 0
-79 -81 0
-80 -81 0
79 80 81 0
-82 -83 0
-82 -84 0
-83 -84 0
82 83 84 0
-85 -86 0
-85 -87 0
-86 -87 0
85 86 87 0
-88 -89 0
-88 -90 0
-89 -90 0
88 89 90 0
-91 -92 0
-91 -93 0
-92 -93 0
91 92 93 0
-94 -95 0
-94 -96 0
-95 -96 0
94 95 96 0
-97 -98 0
-97 -99 0
-98 -99 0
97 98 99 0
-100 -101 0
-100 -102 0
-101 -102 0
100 101 102 0
-103 -104 0
-103 -105 0
-104 -105 0
103 104 105 0
-106 -107 0
-106 -108 0
-107 -108 0
106 107 108 0
-109 -110 0
-109 -111 0
-110 -111 0
109 110 111 0
-112 -113 0
-112 -114 0
-113 -114 0
112 113 114 0
-115 -116 0
-115 -117 0
-116 -117 0
115 116 117 0
-118 -119 0
-118 -120 0
-119 -120 0
118 119 120 0
-121 -122 0
-121 -123 0
-122 -123 0
121 122 123 0
-124 -125 0
-124 -126 0
-125 -126 0
124 125 126 0
-127 -128 0
-127 -129 0
-128 -129 0
127 128 129 0
-130 -131 0
-130 -132 0
-131 -132 0
130 131 132 0
-133 -134 0
-133 -135 0
-134 -135 0
133 134 135 0
-136 -137 0
-136 -138 0
-137 -138 0
136 137 138 0
-139 -140 0
-139 -141 0
-140 -141 0
139 140 141 0
-142 -143 0
-142 -144 0
-143 -144 0
142 143 144 0
-145 -146 0
-145 -147 0
-146 -147 0
145 146 147 0
-148 -149 0
-148 -150 0
-149 -150 0
148 149 150 0
-151 -152 0
-151 -153 0
-152 -153 0
151 152 153 0
-154 -155 0
-154 -156 0
-155 -156 0
154 155 156 0
-157 -158 0
-157 -159 0
-158 -159 0
157 158 159 0
-160 -161 0
-160 -162 0
-161 -162 0
160 161 162 0
-163 -164 0
-163 -165 0
-164 -165 0
163 164 165 0
-166 -167 0
-166 -168 0
-167 -168 0
166 167 168 0
-169 -170 0
-169 -171 0
-170 -171 0
169 170 171 0
-172 -173 0
-172 -174 0
-173 -174 0
172 173 174 0
-175 -176 0
-175 -177 0
-176 -177 0
175 176 177 0
-178 -179 0
-178 -180 0
-179 -180 0
178 179 180 0
-181 -182 0
-181 -183 0
-182 -183 0
181 182 183 0
-184 -185 0
-184 -186 0
-185 -186 0
184 185 186 0
-187 -188 0
-187 -189 0
-188 -189 0
187 188 189 0
-190 -191 0
-190 -192 0
-191 -192 0
190 191 192 0
-193 -194 0
-193 -195 0
-194 -195 0
193 194 195 0
-196 -197 0
-196 -198 0
-197 -198 0
196 197 198 0
-199 -200 0
-199 -201 0
-200 -201 0
199 200 201 0
-202 -203 0
-202 -204 0
-203 -204 0
202 203 204 0
-205 -206 0
-205 -207 0
-206 -207 0
205 206 207 0
-208 -209 0
-208 -210 0
-209 -210 0
208 209 210 0
-211 -212 0
-211 -213 0
-212 -213 0
211 212 213 0
-214 -215 0
-214 -216 0
-215 -216 0
214 215 216 0
-217 -218 0
-217 -219 0
-218 -219 0
217 218 219 0
-220 -221 0
-220 -222 0
-221 -222 0
220 221 222 0
-223 -224 0
-223 -225 0
-224 -225 0
223 224 225 0
-226 -227 0
-226 -228 0
-227 -228 0
226 227 228 0
-229 -230 0
-229 -231 0
-230 -231 0
229 230 231 0
-232 -233 0
-232 -234 0
-233 -234 0
232 233 234 0
-235 -236 0
-235 -237 0
-236 -237 0
235 236 237 0
-238 -239 0
-238 -240 0
-239 -240 0
238 239 240 0
-241 -242 0
-241 -243 0
-242 -243 0
241 242 243 0
-244 -245 0
-244 -246 0
-245 -246 0
244 245 246 0
-247 -248 0
-247 -249 0
-248 -249 0
247 248 249 0
-250 -251 0
-250 -252 0
-251 -252 0
250 251 252 0
-253 -254 0
-253 -255 0
-254 -255 0
253 254 255 0
-256 -257 0
-256 -258 0
-257 -258 0
256 257 258 0
-259 -260 0
-259 -261 0
-260 -261 0
259 260 261 0
-262 -263 0
-262 -264 0
-263 -264 0
262 263 264 0
-265 -266 0
-265 -267 0
-266 -267 0
265 266 267 0
-268 -269 0
-268 -270 0
-269 -270 0
268 269 270 0
-271 -272 0
-271 -273 0
-272 -273 0
271 272 273 0
-274 -275 0
-274 -276 0
-275 -276 0
274 275 276 0
-277 -278 0
-277 -279 0
-278 -279 0
277 278 279 0
-280 -281 0
-280 -282 0
-281 -282 0
280 281 282 0
-283 -284 0
-283 -285 0
-284 -285 0
283 284 285 0
-286 -287 0
-286 -288 0
-287 -288 0
286 287 288 0
-289 -290 0
-289 -291 0
-290 -291 0
289 290 291 0
-292 -293 0
-292 -294 0
-293 -294 0
292 293 294 0
-295 -296 0
-295 -297 0
-296 -297 0
295 296 297 0
-298 -299 0
-298 -300 0
-299 -300 0
298 299 300 0
-301 -302 0
-301 -303 0
-302 -303 0
301 302 303 0
-304 -305 0
-304 -306 0
-305 -306 0
304 305 306 0
-307 -308 0
-307 -309 0
-308 -309 0
307 308 309 0
-310 -311 0
-310 -312 0
-311 -312 0
310 311 312 0
-313 -314 0
-313 -315 0
-314 -315 0
313 314 315 0
-316 -317 0
-316 -318 0
-317 -318 0
316 317 318 0
-319 -320 0
-319 -321 0
-320 -321 0
319 320 321 0
-322 -323 0
-322 -324 0
-323 -324 0
322 323 324 0
-325 -326 0
-325 -327 0
-326 -327 0
325 326 327 0
-328 -329 0
-328 -330 0
-329 -330 0
328 329 330 0
-331 -332 0
-331 -333 0
-332 -333 0
331 332 333 0
-334 -335 0
-334 -336 0
-335 -336 0
334 335 336 0
-337 -338 0
-337 -339 0
-338 -339 0
337 338 339 0
-340 -341 0
-340 -342 0
-341 -342 0
340 341 342 0
-343 -344 0
-343 -345 0
-344 -345 0
343 344 345 0
-346 -347 0
-346 -348 0
-347 -348 0
346 347 348 0
-349 -350 0
-349 -351 0
-350 -351 0
349 350 351 0
-352 -353 0
-352 -354 0
-353 -354 0
352 353 354 0
-355 -356 0
-355 -357 0
-356 -357 0
355 356 357 0
-358 -359 0
-358 -360 0
-359 -360 0
358 359 360 0
-361 -362 0
-361 -363 0
-362 -363 0
361 362 363 0
-364 -365 0
-364 -366 0
-365 -366 0
364 365 366 0
-367 -368 0
-367 -369 0
-368 -369 0
367 368 369 0
-370 -371 0
-370 -372 0
-371 -372 0
370 371 372 0
-373 -374 0
-373 -375 0
-374 -375 0
373 374 375 0
-376 -377 0
-376 -378 0
-377 -378 0
376 377 378 0
-379 -380 0
-379 -381 0
-380 -381 0
379 380 381 0
-382 -383 0
-382 -384 0
-383 -384 0
382 383 384 0
-385 -386 0
-385 -387 0
-386 -387 0
385 386 387 0
-388 -389 0
-388 -390 0
-389 -390 0
388 389 390 0
-391 -392 0
-391 -393 0
-392 -393 0
391 392 393 0
-394 -395 0
-394 -396 0
-395 -396 0
394 395 396 0
-397 -398 0
-397 -399 0
-398 -399 0
397 398 399 0
-400 -401 0
-400 -402 0
-401 -402 0
400 401 402 0
-403 -404 0
-403 -405 0
-404 -405 0
403 404 405 0
-406 -407 0
-406 -408 0
-407 -408 0
406 407 408 0
-409 -410 0
-409 -411 0
-410 -411 0
409 410 411 0
-412 -413 0
-412 -414 0
-413 -414 0
412 413 414 0
-415 -416 0
-415 -417 0
-416 -417 0
415 416 417 0
-418 -419 0
-418 -420 0
-419 -420 0
418 419 420 0
-421 -422 0
-421 -423 0
-422 -423 0
421 422 423 0
-424 -425 0
-424 -426 0
-425 -426 0
424 425 426 0
-427 -428 0
-427 -429 0
-428 -429 0
427 428 429 0
-430 -431 0
-430 -432 0
-431 -432 0
430 431 432 0
-433 -434 0
-433 -435 0
-434 -435 0
433 434 435 0
-436 -437 0
-436 -438 0
-437 -438 0
436 437 438 0
-439 -440 0
-439 -441 0
-440 -441 0
439 440 441 0
-442 -443 0
-442 -444 0
-443 -444 0
442 443 444 0
-445 -446 0
-445 -447 0
-446 -447 0
445 446 447 0
-448 -449 0
-448 -450 0
-449 -450 0
448 449 450 0
-451 -452 0
-451 -453 0
-452 -453 0
451 452 453 0
-454 -455 0
-454 -456 0
-455 -456 0
454 455 456 0
-457 -458 0
-457 -459 0
-458 -459 0
457 458 459 0
-460 -461 0
-460 -462 0
-461 -462 0
460 461 462 0
-463 -464 0
-463 -465 0
-464 -465 0
463 464 465 0
-466 -467 0
-466 -468 0
-467 -468 0
466 467 468 0
-469 -470 0
-469 -471 0
-470 -471 0
469 470 471 0
-472 -473 0
-472 -474 0
-473 -474 0
472 473 474 0
-475 -476 0
-475 -477 0
-476 -477 0
475 476 477 0
-478 -479 0
-478 -480 0
-479 -480 0
478 479 480 0
-481 -482 0
-481 -483 0
-482 -483 0
481 482 483 0
-484 -485 0
-484 -486 0
-485 -486 0
484 485 486 0
-487 -488 0
-487 -489 0
-488 -489 0
487 488 489 0
-490 -491 0
-490 -492 0
-491 -492 0
490 491 492 0
-493 -494 0
-493 -495 0
-494 -495 0
493 494 495 0
-496 -497 0
-496 -498 0
-497 -498 0
496 497 498 0
-499 -500 0
-499 -501 0
-500 -501 0
499 500 501 0
-502 -503 0
-502 -504 0
-503 -504 0
502 503 504 0
-505 -506 0
-505 -507 0
-506 -507 0
505 506 507 0
-508 -509 0
-508 -510 0
-509 -510 0
508 509 510 0
-511 -512 0
-511 -513 0
-512 -513 0
511 512 513 0
-514 -515 0
-514 -516 0
-515 -516 0
514 515 516 0
-517 -518 0
-517 -519 0
-518 -519 0
517 518 519 0
-520 -521 0
-520 -522 0
-521 -522 0
520 521 522 0
-523 -524 0
-523 -525 0
-524 -525 0
523 524 525 0
-7 -1 0
-8 -2 0
-9 -3 0
-13 -1 0
-14 -2 0
-15 -3 0
-292 -1 0
-293 -2 0
-294 -3 0
-376 -1 0
-377 -2 0
-378 -3 0
-388 -1 0
-389 -2 0
-390 -3 0
-472 -1 0
-473 -2 0
-474 -3 0
-34 -4 0
-35 -5 0
-36 -6 0
-118 -4 0
-119 -5 0
-120 -6 0
-247 -4 0
-248 -5 0
-249 -6 0
-343 -4 0
-344 -5 0
-345 -6 0
-67 -7 0
-68 -8 0
-69 -9 0
-118 -7 0
-119 -8 0
-120 -9 0
-157 -7 0
-158 -8 0
-159 -9 0
-229 -7 0
-230 -8 0
-231 -9 0
-304 -7 0
-305 -8 0
-306 -9 0
-37 -10 0
-38 -11 0
-39 -12 0
-148 -10 0
-149 -11 0
-150 -12 0
-430 -10 0
-431 -11 0
-432 -12 0
-463 -10 0
-464 -11 0
-465 -12 0
-478 -10 0
-479 -11 0
-480 -12 0
-499 -10 0
-500 -11 0
-501 -12 0
-55 -13 0
-56 -14 0
-57 -15 0
-94 -13 0
-95 -14 0
-96 -15 0
-169 -13 0
-170 -14 0
-171 -15 0
-265 -13 0
-266 -14 0
-267 -15 0
-283 -13 0
-284 -14 0
-285 -15 0
-364 -13 0
-365 -14 0
-366 -15 0
-427 -13 0
-428 -14 0
-429 -15 0
-28 -16 0
-29 -17 0
-30 -18 0
-37 -16 0
-38 -17 0
-39 -18 0
-46 -16 0
-47 -17 0
-48 -18 0
-64 -16 0
-65 -17 0
-66 -18 0
-133 -16 0
-134 -17 0
-135 -18 0
-250 -16 0
-251 -17 0
-252 -18 0
-385 -16 0
-386 -17 0
-387 -18 0
-37 -19 0
-38 -20 0
-39 -21 0
-49 -19 0
-50 -20 0
-51 -21 0
-175 -19 0
-176 -20 0
-177 -21 0
-187 -19 0
-188 -20 0
-189 -21 0
-322 -19 0
-323 -20 0
-324 -21 0
-334 -19 0
-335 -20 0
-336 -21 0
-94 -25 0
-95 -26 0
-96 -27 0
-142 -25 0
-143 -26 0
-144 -27 0
-337 -25 0
-338 -26 0
-339 -27 0
-361 -25 0
-362 -26 0
-363 -27 0
-70 -28 0
-71 -29 0
-72 -30 0
-91 -28 0
-92 -29 0
-93 -30 0
-211 -28 0
-212 -29 0
-213 -30 0
-40 -31 0
-41 -32 0
-42 -33 0
-52 -31 0
-53 -32 0
-54 -33 0
-373 -31 0
-374 -32 0
-375 -33 0
-406 -31 0
-407 -32 0
-408 -33 0
-514 -31 0
-515 -32 0
-516 -33 0
-250 -34 0
-251 -35 0
-252 -36 0
-310 -34 0
-311 -35 0
-312 -36 0
-313 -34 0
-314 -35 0
-315 -36 0
-415 -34 0
-416 -35 0
-417 -36 0
-430 -34 0
-431 -35 0
-432 -36 0
-43 -37 0
-44 -38 0
-45 -39 0
-115 -37 0
-116 -38 0
-117 -39 0
-208 -37 0
-209 -38 0
-210 -39 0
-271 -37 0
-272 -38 0
-273 -39 0
-43 -40 0
-44 -41 0
-45 -42 0
-205 -40 0
-206 -41 0
-207 -42 0
-364 -40 0
-365 -41 0
-366 -42 0
-367 -40 0
-368 -41 0
-369 -42 0
-88 -43 0
-89 -44 0
-90 -45 0
-325 -43 0
-326 -44 0
-327 -45 0
-523 -43 0
-524 -44 0
-525 -45 0
-64 -46 0
-65 -47 0
-66 -48 0
-94 -46 0
-95 -47 0
-96 -48 0
-100 -46 0
-101 -47 0
-102 -48 0
-235 -46 0
-236 -47 0
-237 -48 0
-244 -46 0
-245 -47 0
-246 -48 0
-376 -46 0
-377 -47 0
-378 -48 0
-385 -46 0
-386 -47 0
-387 -48 0
-238 -49 0
-239 -50 0
-240 -51 0
-235 -52 0
-236 -53 0
-237 -54 0
-412 -52 0
-413 -53 0
-414 -54 0
-460 -52 0
-461 -53 0
-462 -54 0
-484 -52 0
-485 -53 0
-486 -54 0
-76 -55 0
-77 -56 0
-78 -57 0
-295 -55 0
-296 -56 0
-297 -57 0
-307 -55 0
-308 -56 0
-309 -57 0
-340 -55 0
-341 -56 0
-342 -57 0
-439 -55 0
-440 -56 0
-441 -57 0
-490 -55 0
-491 -56 0
-492 -57 0
-85 -58 0
-86 -59 0
-87 -60 0
-388 -58 0
-389 -59 0
-390 -60 0
-391 -58 0
-392 -59 0
-393 -60 0
-106 -61 0
-107 -62 0
-108 -63 0
-394 -61 0
-395 -62 0
-396 -63 0
-100 -64 0
-101 -65 0
-102 -66 0
-142 -64 0
-143 -65 0
-144 -66 0
-373 -64 0
-374 -65 0
-375 -66 0
-223 -67 0
-224 -68 0
-225 -69 0
-250 -67 0
-251 -68 0
-252 -69 0
-268 -67 0
-269 -68 0
-270 -69 0
-334 -67 0
-335 -68 0
-336 -69 0
-469 -67 0
-470 -68 0
-471 -69 0
-520 -67 0
-521 -68 0
-522 -69 0
-166 -70 0
-167 -71 0
-168 -72 0
-313 -70 0
-314 -71 0
-315 -72 0
-409 -70 0
-410 -71 0
-411 -72 0
-511 -70 0
-512 -71 0
-513 -72 0
-76 -73 0
-77 -74 0
-78 -75 0
-217 -73 0
-218 -74 0
-219 -75 0
-253 -73 0
-254 -74 0
-255 -75 0
-271 -73 0
-272 -74 0
-273 -75 0
-325 -73 0
-326 -74 0
-327 -75 0
-424 -73 0
-425 -74 0
-426 -75 0
-463 -73 0
-464 -74 0
-465 -75 0
-352 -76 0
-353 -77 0
-354 -78 0
-115 -79 0
-116 -80 0
-117 -81 0
-139 -79 0
-140 -80 0
-141 -81 0
-94 -82 0
-95 -83 0
-96 -84 0
-100 -82 0
-101 -83 0
-102 -84 0
-106 -82 0
-107 -83 0
-108 -84 0
-391 -82 0
-392 -83 0
-393 -84 0
-127 -85 0
-128 -86 0
-129 -87 0
-205 -85 0
-206 -86 0
-207 -87 0
-301 -85 0
-302 -86 0
-303 -87 0
-310 -85 0
-311 -86 0
-312 -87 0
-313 -85 0
-314 -86 0
-315 -87 0
-157 -88 0
-158 -89 0
-159 -90 0
-223 -88 0
-224 -89 0
-225 -90 0
-124 -91 0
-125 -92 0
-126 -93 0
-184 -91 0
-185 -92 0
-186 -93 0
-325 -91 0
-326 -92 0
-327 -93 0
-442 -91 0
-443 -92 0
-444 -93 0
-511 -91 0
-512 -92 0
-513 -93 0
-112 -94 0
-113 -95 0
-114 -96 0
-229 -94 0
-230 -95 0
-231 -96 0
-145 -97 0
-146 -98 0
-147 -99 0
-244 -97 0
-245 -98 0
-246 -99 0
-373 -97 0
-374 -98 0
-375 -99 0
-487 -97 0
-488 -98 0
-489 -99 0
-154 -100 0
-155 -101 0
-156 -102 0
-286 -103 0
-287 -104 0
-288 -105 0
-376 -103 0
-377 -104 0
-378 -105 0
-523 -103 0
-524 -104 0
-525 -105 0
-154 -106 0
-155 -107 0
-156 -108 0
-217 -106 0
-218 -107 0
-219 -108 0
-430 -106 0
-431 -107 0
-432 -108 0
-472 -106 0
-473 -107 0
-474 -108 0
-163 -109 0
-164 -110 0
-165 -111 0
-190 -109 0
-191 -110 0
-192 -111 0
-196 -109 0
-197 -110 0
-198 -111 0
-307 -109 0
-308 -110 0
-309 -111 0
-208 -112 0
-209 -113 0
-210 -114 0
-259 -112 0
-260 -113 0
-261 -114 0
-370 -112 0
-371 -113 0
-372 -114 0
-133 -115 0
-134 -116 0
-135 -117 0
-190 -115 0
-191 -116 0
-192 -117 0
-241 -115 0
-242 -116 0
-243 -117 0
-397 -115 0
-398 -116 0
-399 -117 0
-190 -118 0
-191 -119 0
-192 -120 0
-190 -121 0
-191 -122 0
-192 -123 0
-253 -121 0
-254 -122 0
-255 -123 0
-304 -121 0
-305 -122 0
-306 -123 0
-349 -121 0
-350 -122 0
-351 -123 0
-211 -124 0
-212 -125 0
-213 -126 0
-268 -124 0
-269 -125 0
-270 -126 0
-436 -124 0
-437 -125 0
-438 -126 0
-175 -127 0
-176 -128 0
-177 -129 0
-238 -127 0
-239 -128 0
-240 -129 0
-313 -127 0
-314 -128 0
-315 -129 0
-358 -127 0
-359 -128 0
-360 -129 0
-385 -127 0
-386 -128 0
-387 -129 0
-421 -127 0
-422 -128 0
-423 -129 0
-202 -130 0
-203 -131 0
-204 -132 0
-403 -130 0
-404 -131 0
-405 -132 0
-463 -130 0
-464 -131 0
-465 -132 0
-226 -133 0
-227 -134 0
-228 -135 0
-247 -133 0
-248 -134 0
-249 -135 0
-325 -133 0
-326 -134 0
-327 -135 0
-493 -133 0
-494 -134 0
-495 -135 0
-502 -133 0
-503 -134 0
-504 -135 0
-499 -136 0
-500 -137 0
-501 -138 0
-205 -139 0
-206 -140 0
-207 -141 0
-274 -139 0
-275 -140 0
-276 -141 0
-310 -142 0
-311 -143 0
-312 -144 0
-457 -142 0
-458 -143 0
-459 -144 0
-262 -145 0
-263 -146 0
-264 -147 0
-442 -145 0
-443 -146 0
-444 -147 0
-202 -148 0
-203 -149 0
-204 -150 0
-229 -154 0
-230 -155 0
-231 -156 0
-352 -154 0
-353 -155 0
-354 -156 0
-391 -154 0
-392 -155 0
-393 -156 0
-190 -157 0
-191 -158 0
-192 -159 0
-253 -157 0
-254 -158 0
-255 -159 0
-325 -157 0
-326 -158 0
-327 -159 0
-445 -157 0
-446 -158 0
-447 -159 0
-484 -157 0
-485 -158 0
-486 -159 0
-253 -160 0
-254 -161 0
-255 -162 0
-292 -160 0
-293 -161 0
-294 -162 0
-328 -160 0
-329 -161 0
-330 -162 0
-343 -160 0
-344 -161 0
-345 -162 0
-370 -160 0
-371 -161 0
-372 -162 0
-388 -160 0
-389 -161 0
-390 -162 0
-295 -163 0
-296 -164 0
-297 -165 0
-373 -163 0
-374 -164 0
-375 -165 0
-379 -163 0
-380 -164 0
-381 -165 0
-421 -163 0
-422 -164 0
-423 -165 0
-472 -163 0
-473 -164 0
-474 -165 0
-214 -166 0
-215 -167 0
-216 -168 0
-502 -166 0
-503 -167 0
-504 -168 0
-523 -166 0
-524 -167 0
-525 -168 0
-328 -169 0
-329 -170 0
-330 -171 0
-421 -169 0
-422 -170 0
-423 -171 0
-436 -169 0
-437 -170 0
-438 -171 0
-232 -172 0
-233 -173 0
-234 -174 0
-349 -172 0
-350 -173 0
-351 -174 0
-478 -172 0
-479 -173 0
-480 -174 0
-184 -175 0
-185 -176 0
-186 -177 0
-247 -175 0
-248 -176 0
-249 -177 0
-265 -175 0
-266 -176 0
-267 -177 0
-418 -175 0
-419 -176 0
-420 -177 0
-472 -175 0
-473 -176 0
-474 -177 0
-280 -178 0
-281 -179 0
-282 -180 0
-325 -178 0
-326 -179 0
-327 -180 0
-250 -181 0
-251 -182 0
-252 -183 0
-310 -181 0
-311 -182 0
-312 -183 0
-415 -181 0
-416 -182 0
-417 -183 0
-451 -181 0
-452 -182 0
-453 -183 0
-487 -181 0
-488 -182 0
-489 -183 0
-499 -181 0
-500 -182 0
-501 -183 0
-220 -184 0
-221 -185 0
-222 -186 0
-436 -184 0
-437 -185 0
-438 -186 0
-202 -187 0
-203 -188 0
-204 -189 0
-340 -187 0
-341 -188 0
-342 -189 0
-397 -187 0
-398 -188 0
-399 -189 0
-334 -190 0
-335 -191 0
-336 -192 0
-478 -190 0
-479 -191 0
-480 -192 0
-286 -193 0
-287 -194 0
-288 -195 0
-469 -193 0
-470 -194 0
-471 -195 0
-523 -193 0
-524 -194 0
-525 -195 0
-256 -196 0
-257 -197 0
-258 -198 0
-292 -196 0
-293 -197 0
-294 -198 0
-370 -196 0
-371 -197 0
-372 -198 0
-406 -196 0
-407 -197 0
-408 -198 0
-415 -196 0
-416 -197 0
-417 -198 0
-520 -196 0
-521 -197 0
-522 -198 0
-202 -199 0
-203 -200 0
-204 -201 0
-217 -199 0
-218 -200 0
-219 -201 0
-229 -199 0
-230 -200 0
-231 -201 0
-481 -199 0
-482 -200 0
-483 -201 0
-238 -202 0
-239 -203 0
-240 -204 0
-337 -202 0
-338 -203 0
-339 -204 0
-358 -202 0
-359 -203 0
-360 -204 0
-241 -205 0
-242 -206 0
-243 -207 0
-352 -205 0
-353 -206 0
-354 -207 0
-406 -205 0
-407 -206 0
-408 -207 0
-466 -205 0
-467 -206 0
-468 -207 0
-238 -208 0
-239 -209 0
-240 -210 0
-445 -208 0
-446 -209 0
-447 -210 0
-298 -211 0
-299 -212 0
-300 -213 0
-331 -211 0
-332 -212 0
-333 -213 0
-448 -211 0
-449 -212 0
-450 -213 0
-490 -211 0
-491 -212 0
-492 -213 0
-229 -214 0
-230 -215 0
-231 -216 0
-343 -214 0
-344 -215 0
-345 -216 0
-424 -214 0
-425 -215 0
-426 -216 0
-457 -214 0
-458 -215 0
-459 -216 0
-415 -217 0
-416 -218 0
-417 -219 0
-448 -217 0
-449 -218 0
-450 -219 0
-523 -217 0
-524 -218 0
-525 -219 0
-232 -220 0
-233 -221 0
-234 -222 0
-493 -220 0
-494 -221 0
-495 -222 0
-499 -220 0
-500 -221 0
-501 -222 0
-298 -223 0
-299 -224 0
-300 -225 0
-271 -226 0
-272 -227 0
-273 -228 0
-427 -226 0
-428 -227 0
-429 -228 0
-442 -226 0
-443 -227 0
-444 -228 0
-445 -226 0
-446 -227 0
-447 -228 0
-313 -229 0
-314 -230 0
-315 -231 0
-448 -229 0
-449 -230 0
-450 -231 0
-256 -232 0
-257 -233 0
-258 -234 0
-424 -232 0
-425 -233 0
-426 -234 0
-439 -232 0
-440 -233 0
-441 -234 0
-391 -235 0
-392 -236 0
-393 -237 0
-445 -235 0
-446 -236 0
-447 -237 0
-451 -235 0
-452 -236 0
-453 -237 0
-502 -235 0
-503 -236 0
-504 -237 0
-418 -238 0
-419 -239 0
-420 -240 0
-487 -238 0
-488 -239 0
-489 -240 0
-265 -241 0
-266 -242 0
-267 -243 0
-403 -241 0
-404 -242 0
-405 -243 0
-460 -241 0
-461 -242 0
-462 -243 0
-319 -244 0
-320 -245 0
-321 -246 0
-400 -244 0
-401 -245 0
-402 -246 0
-283 -247 0
-284 -248 0
-285 -249 0
-301 -247 0
-302 -248 0
-303 -249 0
-397 -247 0
-398 -248 0
-399 -249 0
-427 -250 0
-428 -251 0
-429 -252 0
-523 -250 0
-524 -251 0
-525 -252 0
-298 -253 0
-299 -254 0
-300 -255 0
-370 -256 0
-371 -257 0
-372 -258 0
-385 -256 0
-386 -257 0
-387 -258 0
-457 -256 0
-458 -257 0
-459 -258 0
-508 -256 0
-509 -257 0
-510 -258 0
-286 -259 0
-287 -260 0
-288 -261 0
-463 -259 0
-464 -260 0
-465 -261 0
-520 -259 0
-521 -260 0
-522 -261 0
-379 -262 0
-380 -263 0
-381 -264 0
-292 -265 0
-293 -266 0
-294 -267 0
-373 -265 0
-374 -266 0
-375 -267 0
-376 -265 0
-377 -266 0
-378 -267 0
-448 -265 0
-449 -266 0
-450 -267 0
-316 -268 0
-317 -269 0
-318 -270 0
-397 -268 0
-398 -269 0
-399 -270 0
-415 -268 0
-416 -269 0
-417 -270 0
-448 -268 0
-449 -269 0
-450 -270 0
-508 -268 0
-509 -269 0
-510 -270 0
-295 -271 0
-296 -272 0
-297 -273 0
-412 -271 0
-413 -272 0
-414 -273 0
-520 -271 0
-521 -272 0
-522 -273 0
-304 -274 0
-305 -275 0
-306 -276 0
-409 -274 0
-410 -275 0
-411 -276 0
-361 -277 0
-362 -278 0
-363 -279 0
-388 -277 0
-389 -278 0
-390 -279 0
-427 -277 0
-428 -278 0
-429 -279 0
-451 -277 0
-452 -278 0
-453 -279 0
-301 -280 0
-302 -281 0
-303 -282 0
-304 -280 0
-305 -281 0
-306 -282 0
-322 -280 0
-323 -281 0
-324 -282 0
-340 -283 0
-341 -284 0
-342 -285 0
-397 -283 0
-398 -284 0
-399 -285 0
-424 -283 0
-425 -284 0
-426 -285 0
-427 -283 0
-428 -284 0
-429 -285 0
-316 -286 0
-317 -287 0
-318 -288 0
-382 -286 0
-383 -287 0
-384 -288 0
-397 -286 0
-398 -287 0
-399 -288 0
-331 -289 0
-332 -290 0
-333 -291 0
-472 -292 0
-473 -293 0
-474 -294 0
-358 -295 0
-359 -296 0
-360 -297 0
-379 -295 0
-380 -296 0
-381 -297 0
-382 -295 0
-383 -296 0
-384 -297 0
-388 -295 0
-389 -296 0
-390 -297 0
-322 -298 0
-323 -299 0
-324 -300 0
-325 -298 0
-326 -299 0
-327 -300 0
-370 -298 0
-371 -299 0
-372 -300 0
-493 -298 0
-494 -299 0
-495 -300 0
-310 -301 0
-311 -302 0
-312 -303 0
-313 -301 0
-314 -302 0
-315 -303 0
-514 -301 0
-515 -302 0
-516 -303 0
-310 -304 0
-311 -305 0
-312 -306 0
-499 -307 0
-500 -308 0
-501 -309 0
-502 -307 0
-503 -308 0
-504 -309 0
-517 -307 0
-518 -308 0
-519 -309 0
-367 -310 0
-368 -311 0
-369 -312 0
-463 -310 0
-464 -311 0
-465 -312 0
-523 -313 0
-524 -314 0
-525 -315 0
-361 -316 0
-362 -317 0
-363 -318 0
-397 -316 0
-398 -317 0
-399 -318 0
-481 -316 0
-482 -317 0
-483 -318 0
-490 -316 0
-491 -317 0
-492 -318 0
-496 -319 0
-497 -320 0
-498 -321 0
-385 -322 0
-386 -323 0
-387 -324 0
-466 -322 0
-467 -323 0
-468 -324 0
-475 -325 0
-476 -326 0
-477 -327 0
-481 -328 0
-482 -329 0
-483 -330 0
-373 -331 0
-374 -332 0
-375 -333 0
-418 -331 0
-419 -332 0
-420 -333 0
-427 -331 0
-428 -332 0
-429 -333 0
-487 -331 0
-488 -332 0
-489 -333 0
-358 -334 0
-359 -335 0
-360 -336 0
-385 -337 0
-386 -338 0
-387 -339 0
-448 -337 0
-449 -338 0
-450 -339 0
-451 -337 0
-452 -338 0
-453 -339 0
-478 -337 0
-479 -338 0
-480 -339 0
-478 -340 0
-479 -341 0
-480 -342 0
-379 -343 0
-380 -344 0
-381 -345 0
-358 -346 0
-359 -347 0
-360 -348 0
-424 -349 0
-425 -350 0
-426 -351 0
-523 -349 0
-524 -350 0
-525 -351 0
-370 -352 0
-371 -353 0
-372 -354 0
-511 -355 0
-512 -356 0
-513 -357 0
-457 -358 0
-458 -359 0
-459 -360 0
-505 -358 0
-506 -359 0
-507 -360 0
-367 -361 0
-368 -362 0
-369 -363 0
-370 -361 0
-371 -362 0
-372 -363 0
-382 -361 0
-383 -362 0
-384 -363 0
-490 -361 0
-491 -362 0
-492 -363 0
-460 -364 0
-461 -365 0
-462 -366 0
-472 -364 0
-473 -365 0
-474 -366 0
-421 -367 0
-422 -368 0
-423 -369 0
-520 -370 0
-521 -371 0
-522 -372 0
-511 -373 0
-512 -374 0
-513 -375 0
-496 -376 0
-497 -377 0
-498 -378 0
-466 -379 0
-467 -380 0
-468 -381 0
-397 -385 0
-398 -386 0
-399 -387 0
-505 -385 0
-506 -386 0
-507 -387 0
-400 -388 0
-401 -389 0
-402 -390 0
-490 -388 0
-491 -389 0
-492 -390 0
-439 -391 0
-440 -392 0
-441 -393 0
-442 -394 0
-443 -395 0
-444 -396 0
-505 -394 0
-506 -395 0
-507 -396 0
-436 -400 0
-437 -401 0
-438 -402 0
-409 -406 0
-410 -407 0
-411 -408 0
-418 -406 0
-419 -407 0
-420 -408 0
-424 -409 0
-425 -410 0
-426 -411 0
-481 -409 0
-482 -410 0
-483 -411 0
-466 -418 0
-467 -419 0
-468 -420 0
-493 -418 0
-494 -419 0
-495 -420 0
-454 -430 0
-455 -431 0
-456 -432 0
-481 -436 0
-482 -437 0
-483 -438 0
-493 -436 0
-494 -437 0
-495 -438 0
-499 -439 0
-500 -440 0
-501 -441 0
-475 -442 0
-476 -443 0
-477 -444 0
-505 -442 0
-506 -443 0
-507 -444 0
-481 -454 0
-482 -455 0
-483 -456 0
-481 -457 0
-482 -458 0
-483 -459 0
-508 -457 0
-509 -458 0
-510 -459 0
-472 -463 0
-473 -464 0
-474 -465 0
-508 -478 0
-509 -479 0
-510 -480 0
-520 -499 0
-521 -500 0
-522 -501 0
